20494.4
20494.4
20494.4
20494.4
20494.4
20494.4
20122.8
20122.8
19908.1
19908.1
19723.7
19712.8
19658.4
19616.4
19425
19425
19187.5
19027.8
19027.8
19027.8
18672
18672
18641.5
18641.5
18641.5
18501.8
18290.9
18290.9
18290.9
18290.9
18290.9
18290.9
18236
18194.9
18165.1
18090.5
18090.5
18024.6
18024.6
18024.6
18019
18019
17981.6
17958.7
17939.4
17939.4
17809.8
17809.8
17809.8
17786.9
17786.9
17786.9
17786.9
17758.2
17742.1
17662.7
17662.7
17506.2
17506.2
17506.2
17506.2
17506.2
17425.7
17425.7
17425.7
17306.1
17306.1
17299.9
17299.9
17249.9
17249.9
17071.6
17071.6
17071.6
17045.4
17045.4
17045.4
16999.8
16999.8
16891.9
16786.9
16732.8
16672.8
16672.8
16672.8
16560.4
16510.1
16510.1
16510.1
16510.1
16501.9
16501.9
16501.9
16453.1
16453.1
16358.5
16358.5
16358.5
16213.4
16213.4
